3
17
1
16
1 24 0
8
26
2 6 1 3
3 3 1 3
2 6 1 5
3 3 1 5
2 6 1 7
3 3 1 7
2 6 1 8
3 3 0
1
10
1 7 0
7
20
2 2 1 3
3 1 1 3
2 2 1 5
3 1 1 5
2 2 1 7
3 1 1 7
2 2 0
1
12
1 12 0
6
22
2 4 1 3
3 2 1 3
2 4 1 5
3 2 1 5
2 4 1 6
3 2 0
1
14
1 6 0
6
24
2 2 1 3
3 1 1 3
2 2 1 5
3 1 1 5
2 2 1 6
3 1 0
1
4
1 11 0
11
14
2 2 1 3
3 1 1 3
2 2 1 5
3 1 1 5
2 2 1 7
3 1 1 7
2 2 1 9
3 1 1 9
2 2 1 11
3 1 1 11
2 2 0
1
17
1 16 0
4
27
2 8 1 3
3 4 1 3
2 8 1 4
3 4 0
1
8
1 2 0
2
18
2 2 1 2
3 1 0
1
20
1 7 0
7
30
2 2 1 3
3 1 1 3
2 2 1 5
3 1 1 5
2 2 1 7
3 1 1 7
2 2 0
1
8
1 20 0
